files/upTests/tupley3-1/0001.eprime.solution
language ESSENCE' 1.0
$ minion Nodes: 11
$ minion TotalTime: 0.001475
$ Savile Row TotalTime: 0.357
letting pain_ExplicitVarSize_tuple1 be [[[0, 1], 
[0, 1]], 
[[0, 1], 
[0, 1]]]
letting pain_ExplicitVarSize_tuple2 be [[[6, 6], 
[6, 8]], 
[[6, 6], 
[6, 6]]]
